2 100 1222
5 4 5 1 6 4 6 4 8 2
3 4
8 5 5
9 3 7 5
0 40.0 50.0 0.0 0.0 0 1236
2 45.0 68.0 90.0 10.0 760 1120 28 0 1 0 0 0 0 0 0 0 0
3 45.0 70.0 90.0 30.0 668 1028 92 0 1 1 0 0 1 0 1 0 0
4 42.0 66.0 90.0 10.0 16 376 84 0 0 0 0 0 0 0 0 1 0
5 42.0 68.0 90.0 10.0 575 935 37 0 0 0 0 0 0 1 0 0 0
6 42.0 65.0 90.0 10.0 15 375 37 0 0 0 1 0 0 1 0 0 0
7 40.0 69.0 90.0 20.0 482 842 5 0 0 0 0 0 1 0 0 0 1
8 40.0 66.0 90.0 20.0 18 378 23 0 1 1 0 0 1 0 0 0 1
9 38.0 68.0 90.0 20.0 110 470 3 0 0 0 0 1 0 0 1 0 0
10 38.0 70.0 90.0 10.0 390 750 7 0 0 0 0 1 1 0 0 0 0
11 35.0 66.0 90.0 10.0 204 564 84 0 1 1 0 1 1 0 0 0 0
12 35.0 69.0 90.0 10.0 297 657 32 0 1 1 1 0 1 0 0 0 0
13 25.0 85.0 90.0 20.0 507 867 84 0 1 0 0 0 0 0 1 0 0
14 22.0 75.0 90.0 30.0 30 390 13 0 0 0 0 1 0 0 0 0 1
15 22.0 85.0 90.0 10.0 414 774 81 0 0 0 0 0 1 0 0 1 0
16 20.0 80.0 90.0 40.0 227 587 7 0 1 0 0 0 0 1 0 0 0
17 20.0 85.0 90.0 40.0 322 682 78 0 0 1 0 0 1 1 1 1 0
18 18.0 75.0 90.0 20.0 33 393 17 0 0 0 0 0 0 0 0 1 0
19 15.0 75.0 90.0 20.0 37 397 71 0 0 0 0 0 1 0 0 0 0
20 15.0 80.0 90.0 10.0 132 492 58 0 0 0 0 0 0 0 0 0 1
21 30.0 50.0 90.0 10.0 10 370 63 0 0 1 0 0 0 1 0 0 0
22 30.0 52.0 90.0 20.0 760 1120 39 1 0 0 0 0 0 0 0 0 0
23 28.0 52.0 90.0 20.0 668 1028 43 0 0 0 0 0 0 0 0 1 0
24 28.0 55.0 90.0 10.0 575 935 69 1 0 0 0 0 1 0 0 0 0
25 25.0 50.0 90.0 10.0 15 375 77 0 1 0 0 0 0 0 0 0 0
26 25.0 52.0 90.0 40.0 17 377 84 0 0 0 0 1 0 0 0 0 0
27 25.0 55.0 90.0 10.0 482 842 93 0 0 0 0 0 0 1 0 0 0
28 23.0 52.0 90.0 10.0 109 469 0 0 1 0 0 0 0 0 1 0 0
29 23.0 55.0 90.0 20.0 390 750 47 0 0 0 0 0 0 0 0 1 0
30 20.0 50.0 90.0 10.0 202 562 62 0 1 0 1 0 0 0 0 0 0
31 20.0 55.0 90.0 10.0 297 657 35 0 0 1 0 0 0 0 0 1 0
32 10.0 35.0 90.0 20.0 39 399 73 0 0 0 1 0 0 0 1 1 1
33 10.0 40.0 90.0 30.0 31 391 68 0 0 0 0 0 0 0 0 1 0
34 8.0 40.0 90.0 40.0 33 393 37 1 0 1 0 1 0 0 0 1 0
35 8.0 45.0 90.0 20.0 604 964 95 0 0 0 0 0 0 0 1 0 0
36 5.0 35.0 90.0 10.0 134 494 0 0 1 0 0 0 0 0 1 0 0
37 5.0 45.0 90.0 10.0 511 871 16 0 0 0 0 0 0 0 0 1 0
38 2.0 40.0 90.0 20.0 229 589 76 1 1 0 0 0 0 0 1 0 0
39 0.0 40.0 90.0 30.0 321 681 76 0 0 0 0 0 0 0 0 1 0
40 0.0 45.0 90.0 20.0 416 776 73 0 0 0 1 0 0 1 0 1 0
41 35.0 30.0 90.0 10.0 113 473 37 0 0 0 0 0 1 0 0 0 0
42 35.0 32.0 90.0 10.0 21 381 46 0 0 0 1 0 0 0 0 0 1
43 33.0 32.0 90.0 20.0 19 379 13 0 0 0 1 0 0 1 1 0 0
44 33.0 35.0 90.0 10.0 16 376 65 0 0 0 0 0 0 0 0 0 1
45 32.0 30.0 90.0 10.0 206 566 60 0 0 0 0 0 1 0 0 0 0
46 30.0 30.0 90.0 10.0 391 751 37 1 1 0 0 1 0 1 0 0 1
47 30.0 32.0 90.0 30.0 299 659 58 1 0 0 0 0 1 0 1 0 1
48 30.0 35.0 90.0 10.0 767 1127 61 0 1 1 0 0 0 0 0 0 0
49 28.0 30.0 90.0 10.0 483 843 98 0 0 0 0 1 0 0 0 0 0
50 28.0 35.0 90.0 10.0 766 1126 49 1 0 0 1 1 1 0 0 1 0
51 26.0 32.0 90.0 10.0 668 1028 20 0 1 0 0 0 0 0 0 1 1
52 25.0 30.0 90.0 10.0 576 936 89 0 1 0 0 0 0 0 0 0 0
53 25.0 35.0 90.0 10.0 761 1121 43 0 0 1 0 1 0 0 0 0 0
54 44.0 5.0 90.0 20.0 137 497 73 0 0 1 1 1 0 0 0 0 0
55 42.0 10.0 90.0 40.0 42 402 59 0 1 0 0 0 0 1 0 1 1
56 42.0 15.0 90.0 10.0 35 395 35 0 0 0 1 0 0 1 0 0 1
57 40.0 5.0 90.0 30.0 231 591 98 1 1 0 0 0 0 0 1 0 0
58 40.0 15.0 90.0 40.0 35 395 86 1 0 0 0 0 0 0 0 0 0
59 38.0 5.0 90.0 30.0 323 683 2 0 1 0 0 0 1 0 0 0 0
60 38.0 15.0 90.0 10.0 516 876 84 0 0 1 0 0 1 0 0 0 0
61 35.0 5.0 90.0 20.0 416 776 54 1 0 0 1 0 1 0 1 0 0
62 50.0 30.0 90.0 10.0 391 751 58 0 1 0 0 0 1 0 0 1 0
63 50.0 35.0 90.0 20.0 110 470 84 0 0 0 0 0 1 0 0 0 0
64 50.0 40.0 90.0 50.0 15 375 48 0 1 0 0 1 0 0 0 0 0
65 48.0 30.0 90.0 10.0 483 843 0 0 0 0 0 1 0 0 0 0 0
66 48.0 40.0 90.0 10.0 12 372 56 0 1 0 0 0 0 0 1 0 0
67 47.0 35.0 90.0 10.0 671 1031 30 0 0 0 0 0 0 1 0 0 0
68 47.0 40.0 90.0 10.0 12 372 59 0 0 0 0 1 0 0 0 0 0
69 45.0 30.0 90.0 10.0 576 936 33 0 0 0 0 1 1 0 0 0 0
70 45.0 35.0 90.0 10.0 763 1123 47 0 0 1 0 0 0 0 0 0 0
71 95.0 30.0 90.0 30.0 242 602 26 0 1 1 0 0 0 0 1 0 1
72 95.0 35.0 90.0 20.0 147 507 76 0 0 1 0 0 0 1 0 0 0
73 53.0 30.0 90.0 10.0 298 658 45 0 0 1 0 0 0 0 0 0 0
74 92.0 30.0 90.0 10.0 335 695 17 0 0 0 0 0 0 0 1 1 0
75 53.0 35.0 90.0 50.0 203 563 11 0 0 0 0 1 0 0 0 0 0
76 45.0 65.0 90.0 20.0 770 1130 37 1 0 1 0 0 0 1 0 0 0
77 90.0 35.0 90.0 10.0 52 412 20 0 0 0 0 0 1 0 0 0 0
78 88.0 30.0 90.0 10.0 429 789 81 1 0 0 0 0 1 0 0 1 0
79 88.0 35.0 90.0 20.0 50 410 59 0 0 0 1 0 0 1 0 0 0
80 87.0 30.0 90.0 10.0 520 880 30 1 1 0 0 0 0 0 0 0 0
81 85.0 25.0 90.0 10.0 615 975 4 0 0 0 0 0 1 0 0 0 0
82 85.0 35.0 90.0 30.0 47 407 77 0 1 1 0 1 0 0 1 0 0
83 75.0 55.0 90.0 20.0 215 575 58 0 0 0 0 0 1 0 0 0 0
84 72.0 55.0 90.0 10.0 122 482 55 0 0 0 0 0 1 0 0 0 0
85 70.0 58.0 90.0 20.0 311 671 55 1 0 0 0 0 0 0 1 1 0
86 68.0 60.0 90.0 30.0 404 764 69 0 0 0 0 0 1 0 0 0 0
87 66.0 55.0 90.0 10.0 26 386 8 0 0 1 0 1 1 1 0 0 0
88 65.0 55.0 90.0 20.0 25 385 93 0 0 0 1 0 1 0 0 0 0
89 65.0 60.0 90.0 30.0 497 857 53 1 0 0 0 0 0 1 0 0 0
90 63.0 58.0 90.0 10.0 590 950 30 1 0 1 0 0 1 0 0 1 0
91 60.0 55.0 90.0 10.0 20 380 90 0 0 0 0 0 0 0 0 0 1
92 60.0 60.0 90.0 10.0 683 1043 65 0 1 1 0 0 0 0 0 0 0
93 67.0 85.0 90.0 20.0 225 585 47 0 0 0 1 0 0 0 0 0 0
94 65.0 85.0 90.0 40.0 317 677 75 0 0 0 0 1 0 0 0 0 0
95 65.0 82.0 90.0 10.0 131 491 86 0 0 0 0 0 1 0 0 0 0
96 62.0 80.0 90.0 30.0 38 398 68 0 0 0 0 0 0 0 1 0 1
97 60.0 80.0 90.0 10.0 36 396 52 0 0 0 0 0 1 0 0 0 0
98 60.0 85.0 90.0 30.0 412 772 58 0 0 0 0 0 0 0 1 0 0
99 58.0 75.0 90.0 20.0 30 390 29 0 1 1 0 0 0 0 0 0 0
100 55.0 80.0 90.0 10.0 602 962 31 0 1 0 0 0 0 0 1 0 0
101 55.0 85.0 90.0 20.0 507 867 21 0 0 1 0 0 1 0 0 1 0